Cost: 999
0-3-4-5-70-28-64-17-24-29-30-65-44-45-53-56-0
0-57-51-50-67-49-47-39-42-32-33-34-35-69-41-38-36-37-63-40-68-46-62-54-0
Cost: 999
0-3-4-5-70-17-64-28-29-30-31-65-44-45-53-0
0-57-51-50-67-49-47-39-42-32-33-34-35-69-41-38-36-37-63-40-68-46-62-54-56-0
Cost: 999
0-3-4-5-70-28-64-17-24-29-30-65-44-45-53-56-0
0-57-51-50-67-49-47-39-42-32-33-34-35-69-41-38-36-37-63-40-68-46-62-54-0
Cost: 1001
0-3-4-70-28-17-64-24-29-30-65-2-0
0-57-56-52-53-44-43-42-32-33-34-35-69-41-37-38-36-63-40-68-46-62-47-39-48-51-50-54-0
Cost: 999
0-57-51-50-67-49-47-39-40-42-32-33-34-35-69-41-38-36-37-63-68-46-62-54-0
0-3-4-5-70-28-17-64-24-29-30-65-44-45-53-56-0
Cost: 999
0-57-51-50-67-49-47-39-42-32-33-34-35-69-41-37-38-36-63-40-68-46-62-54-56-0
0-3-4-5-70-28-17-64-24-30-31-65-44-45-53-0
Cost: 999
0-3-4-5-70-64-17-24-29-30-31-65-44-45-53-56-0
0-57-51-50-67-49-47-39-42-32-33-35-34-69-41-37-38-36-63-40-68-46-62-54-0
Cost: 999
0-3-4-5-70-17-64-28-29-30-31-65-44-45-53-0
0-57-51-50-67-49-47-39-40-42-32-33-34-35-69-41-38-36-37-63-68-46-62-54-56-0
Cost: 999
0-57-51-50-67-49-47-39-40-42-32-33-34-35-69-41-38-36-37-63-68-46-62-54-56-0
0-3-4-5-70-28-64-17-24-29-31-65-44-45-53-0
Cost: 999
0-57-51-50-67-49-47-39-40-42-32-33-34-35-69-41-38-36-37-63-68-46-62-54-56-0
0-3-4-5-70-17-64-24-29-30-31-65-44-45-53-0
Cost: 999
0-57-51-50-67-49-47-39-40-42-32-33-34-35-69-41-37-38-36-63-68-46-62-54-56-0
0-3-4-5-70-28-64-17-24-30-31-65-44-45-53-0
Cost: 999
0-3-4-5-70-28-64-17-24-30-31-65-44-45-53-56-0
0-57-51-50-67-49-47-39-40-42-32-33-34-35-69-41-38-36-37-63-68-46-62-54-0
Cost: 1001
0-57-56-52-53-44-43-42-32-33-34-35-69-41-38-36-37-63-40-68-46-62-47-39-48-51-50-54-0
0-4-5-70-28-17-64-24-29-30-65-2-0
Cost: 999
0-57-51-50-67-49-47-39-40-42-32-33-34-35-69-41-37-38-36-63-68-46-62-54-56-0
0-3-4-5-70-17-64-28-29-30-31-65-44-45-53-0
Cost: 999
0-3-4-5-70-28-17-64-24-29-31-65-44-45-53-0
0-57-51-50-67-49-47-39-40-42-32-33-34-35-69-41-37-38-36-63-68-46-62-54-56-0
Cost: 999
0-57-51-50-67-49-47-39-40-42-32-33-34-35-69-41-37-38-36-63-68-46-62-54-56-0
0-3-4-5-70-28-64-17-24-30-31-65-44-45-53-0
Cost: 999
0-57-51-50-67-49-47-39-40-42-32-33-34-35-69-41-37-38-36-63-68-46-62-54-56-0
0-3-4-5-70-28-64-17-24-30-31-65-44-45-53-0
Cost: 999
0-3-4-5-70-28-17-64-24-29-31-65-44-45-53-0
0-57-51-50-67-49-47-39-40-42-32-33-34-35-69-41-37-38-36-63-68-46-62-54-56-0
Cost: 999
0-3-4-5-70-28-17-64-29-30-31-65-44-45-53-56-0
0-57-51-50-67-49-47-39-40-42-32-33-34-35-69-41-38-36-37-63-68-46-62-54-0
Cost: 999
0-57-51-50-67-49-47-39-40-42-32-33-34-35-69-41-38-36-37-63-68-46-62-54-0
0-3-4-5-70-64-17-24-29-30-31-65-44-45-53-56-0
Cost: 999
0-3-4-5-70-28-64-17-29-30-31-65-44-45-53-56-0
0-57-51-50-67-49-47-39-42-32-33-34-35-69-41-38-36-37-63-40-68-46-62-54-0
Cost: 999
0-3-4-5-70-28-64-17-29-30-31-65-44-45-53-56-0
0-57-51-50-67-49-47-39-42-32-33-34-35-69-41-38-36-37-63-40-68-46-62-54-0
Cost: 999
0-3-4-5-70-28-64-17-24-29-31-65-44-45-53-0
0-57-51-50-67-49-47-39-40-42-32-33-34-35-69-41-38-36-37-63-68-46-62-54-56-0
Cost: 999
0-3-4-5-70-28-64-17-24-29-31-65-44-45-53-0
0-57-51-50-67-49-47-39-40-42-32-33-34-35-69-41-38-36-37-63-68-46-62-54-56-0
Cost: 999
0-3-4-5-70-64-17-24-29-30-31-65-44-45-53-56-0
0-57-51-50-67-49-47-39-40-42-32-33-34-35-69-41-38-36-37-63-68-46-62-54-0
Cost: 999
0-3-4-5-70-28-64-17-24-29-31-65-44-45-53-0
0-57-51-50-67-49-47-39-40-42-32-33-34-35-69-41-38-36-37-63-68-46-62-54-56-0
Cost: 999
0-57-51-50-67-49-47-39-40-42-32-33-34-35-69-41-38-36-37-63-68-46-62-54-0
0-3-4-5-70-64-17-24-29-30-31-65-44-45-53-56-0
Cost: 999
0-3-4-5-70-28-64-17-29-30-31-65-44-45-53-56-0
0-57-51-50-67-49-47-39-42-32-33-34-35-69-41-38-36-37-63-40-68-46-62-54-0
Cost: 999
0-3-4-5-70-28-64-17-29-30-31-65-44-45-53-56-0
0-57-51-50-67-49-47-39-42-32-33-34-35-69-41-38-36-37-63-40-68-46-62-54-0
Cost: 999
0-3-4-5-70-28-64-17-24-30-31-65-44-45-53-56-0
0-57-51-50-67-49-47-39-40-42-32-33-34-35-69-41-38-36-37-63-68-46-62-54-0
Cost: 999
0-57-51-50-67-49-47-39-40-42-32-33-35-34-69-41-37-38-36-63-68-46-62-54-0
0-3-4-5-70-17-64-28-29-30-31-65-44-45-53-56-0
Cost: 999
0-3-4-5-70-28-64-17-29-30-31-65-44-45-53-0
0-57-51-50-67-49-47-39-42-32-33-35-34-69-41-37-38-36-63-40-68-46-62-54-56-0
Cost: 999
0-3-4-5-70-17-64-28-29-30-31-65-44-45-53-0
0-57-51-50-67-49-47-39-40-42-32-33-34-35-69-41-38-36-37-63-68-46-62-54-56-0
Cost: 999
0-57-51-50-67-49-47-39-40-42-32-33-34-35-69-41-37-38-36-63-68-46-62-54-56-0
0-3-4-5-70-28-17-64-24-30-31-65-44-45-53-0
